c Sudoku solution
p cnf 729 0
114 0
123 0
269 0
293 0
315 0
339 0
378 0
386 0
452 0
473 0
548 0
563 0
616 0
633 0
651 0
699 0
718 0
745 0
766 0
831 0
854 0
889 0
179 0
927 0
953 0
783 0
813 0
343 0
357 0
759 0
919 0
449 0
556 0
496 0
529 0
961 0
942 0
847 0
868 0
644 0
364 0
162 0
998 0
274 0
321 0
392 0
895 0
976 0
984 0
872 0
826 0
935 0
594 0
677 0
665 0
467 0
425 0
434 0
628 0
411 0
488 0
682 0
724 0
732 0
222 0
217 0
512 0
537 0
575 0
581 0
771 0
797 0
285 0
191 0
187 0
146 0
241 0
155 0
258 0
138 0
236 0
